(set-info :origin "SVCOMP13 benchmarks generated by Arie Gurfinkel")
(set-info :status sat)
(set-logic HORN)
(declare-fun cp-rel-entry () Bool)
(declare-fun cp-rel-ERROR () Bool)
(declare-fun cp-rel-end (Bool Bool Bool Bool Real Real) Bool)
(declare-fun cp-rel-bb (Bool Bool Bool Bool Real Real) Bool)
(assert |cp-rel-entry|)
(assert (forall ((?A Bool) (?B Bool) (?C Bool) (?D Bool) (?E Real) (?F Real) (?G Bool) (?H Real) (?I Real) (?J Bool) (?K Real) (?L Bool) (?M Bool) (?N Real) (?O Bool) )(let (($x187244 (and |cp-rel-entry| (= ?O (= ?I (~ 2.0))) (= ?M (not (= ?N (~ 256.0)))) (= ?C (or ?J ?L)) (= ?L (= ?I (~ 4.0))) (= ?J (= ?K 0.0)) (= ?B (= ?I (~ 1.0))) (= ?A (= ?H 0.0)) (>= ?F 8466.0) (<= ?F 8466.0) (>= ?E 0.0) (<= ?E 0.0) (= ?G true) (= ?D (and ?M ?O)))))
(=> $x187244 (|cp-rel-bb| ?A ?B ?C ?D ?E ?F))))
)
(assert (forall ((?A Bool) (?B Bool) (?C Bool) (?D Bool) (?E Real) (?F Real) (?G Real) (?H Real) (?I Bool) (?J Bool) (?K Bool) (?L Bool) (?M Bool) (?N Bool) (?O Bool) (?P Bool) (?Q Bool) (?R Bool) (?S Bool) (?T Bool) (?U Bool) (?V Bool) (?W Bool) (?X Bool) (?Y Bool) (?Z Bool) (?A1 Bool) (?B1 Bool) (?C1 Bool) (?D1 Bool) (?E1 Bool) (?F1 Bool) (?G1 Bool) (?H1 Bool) (?I1 Bool) (?J1 Bool) (?K1 Bool) (?L1 Bool) (?M1 Bool) (?N1 Bool) (?O1 Bool) (?P1 Bool) (?Q1 Bool) (?R1 Bool) (?S1 Bool) (?T1 Bool) (?U1 Bool) (?V1 Bool) (?W1 Bool) (?X1 Bool) (?Y1 Bool) (?Z1 Bool) (?A2 Bool) (?B2 Bool) (?C2 Bool) (?D2 Bool) (?E2 Bool) (?F2 Bool) (?G2 Bool) (?H2 Bool) (?I2 Bool) (?J2 Bool) (?K2 Bool) (?L2 Bool) (?M2 Bool) (?N2 Bool) (?O2 Bool) (?P2 Bool) (?Q2 Bool) (?R2 Bool) (?S2 Bool) (?T2 Bool) (?U2 Bool) (?V2 Bool) (?W2 Bool) (?X2 Bool) (?Y2 Bool) (?Z2 Bool) (?A3 Bool) (?B3 Bool) (?C3 Bool) (?D3 Bool) (?E3 Bool) (?F3 Bool) (?G3 Bool) (?H3 Bool) (?I3 Bool) (?J3 Bool) (?K3 Bool) (?L3 Bool) (?M3 Bool) (?N3 Bool) (?O3 Bool) (?P3 Bool) (?Q3 Bool) (?R3 Bool) (?S3 Bool) (?T3 Bool) (?U3 Bool) (?V3 Bool) (?W3 Bool) (?X3 Bool) (?Y3 Bool) (?Z3 Bool) (?A4 Bool) (?B4 Bool) (?C4 Bool) (?D4 Bool) (?E4 Real) (?F4 Bool) (?G4 Real) (?H4 Real) (?I4 Real) (?J4 Real) (?K4 Bool) (?L4 Bool) (?M4 Bool) (?N4 Bool) (?O4 Bool) (?P4 Bool) (?Q4 Bool) (?R4 Bool) (?S4 Real) (?T4 Bool) (?U4 Bool) (?V4 Bool) (?W4 Bool) (?X4 Bool) )(let (($x799288 (not ?Q1)))
(let (($x366610 (or $x799288 ?R1)))
(let (($x36262 (not ?V1)))
(let (($x325046 (or $x36262 ?W1)))
(let (($x698096 (not ?N3)))
(let (($x295403 (or $x698096 ?O3)))
(let (($x381797 (not ?X3)))
(let (($x167798 (not ?C4)))
(let (($x234022 (or $x167798 (and ?X3 ?D4 (<= ?E4 ?E) (>= ?E4 ?E)) (and ?S3 ?F4 ?Z3 (<= ?E4 5.0) (>= ?E4 5.0)))))
(let (($x338024 (>= ?G ?E)))
(let (($x811480 (<= ?G ?E)))
(let (($x604355 (and ?V1 (<= ?G ?J4) (>= ?G ?J4) (<= ?H 8496.0) (>= ?H 8496.0))))
(let (($x510770 (and ?Y2 (not ?A) (<= ?G ?I4) (>= ?G ?I4) (<= ?H 8656.0) (>= ?H 8656.0))))
(let (($x923017 (and ?N3 (<= ?G ?I4) (>= ?G ?I4) (<= ?H 8512.0) (>= ?H 8512.0))))
(let (($x488873 (and ?Q2 ?A (<= ?G ?H4) (>= ?G ?H4) (<= ?H 8656.0) (>= ?H 8656.0))))
(let (($x371494 (and ?H3 (<= ?G ?G4) (>= ?G ?G4) (<= ?H 8672.0) (>= ?H 8672.0))))
(let (($x250821 (and ?C4 (not ?A) (<= ?G ?E4) (>= ?G ?E4) (<= ?H 8640.0) (>= ?H 8640.0))))
(let (($x430322 (or $x250821 $x371494 $x488873 (and ?E3 $x811480 $x338024 (<= ?H 8592.0) (>= ?H 8592.0)) (and ?I2 ?G3 $x811480 $x338024 (<= ?H 8466.0) (>= ?H 8466.0)) (and ?P3 $x811480 $x338024 (<= ?H 8576.0) (>= ?H 8576.0)) (and ?B3 ?R3 $x811480 $x338024 (<= ?H 8560.0) (>= ?H 8560.0)) $x923017 $x510770 $x604355 (and ?B2 ?K4 $x811480 $x338024 (<= ?H 8528.0) (>= ?H 8528.0)) (and ?G1 ?L4 $x811480 $x338024 (<= ?H 8544.0) (>= ?H 8544.0)) (and ?G2 ?M4 $x811480 $x338024 (<= ?H 8576.0) (>= ?H 8576.0)) (and ?L2 ?N4 $x811480 $x338024 (<= ?H 8608.0) (>= ?H 8608.0)) (and ?O2 ?O4 $x811480 $x338024 (<= ?H 8640.0) (>= ?H 8640.0)))))
(let (($x355835 (and (|cp-rel-bb| ?A ?B ?C ?D ?E ?F) (= ?Z3 (= ?E 4.0)) (= ?U3 (not (<= 5.0 ?E))) (= ?G4 (ite ?X4 3.0 ?E)) (= ?X4 (= ?E 2.0)) (= ?R3 (or ?W4 ?D)) (= ?W4 (or ?B ?V4)) (= ?V4 (not ?C)) (= ?I4 (ite ?U4 2.0 ?E)) (= ?U4 (= ?E 1.0)) (= ?M3 (= ?F 8672.0)) (= ?J3 (= ?F 8656.0)) (= ?H4 (ite ?T4 4.0 ?E)) (= ?T4 (= ?E 3.0)) (= ?O4 (= ?F 8608.0)) (= ?N4 (= ?F 8592.0)) (= ?G3 (= ?S4 2.0)) (= ?M4 (= ?F 8560.0)) (= ?D3 (= ?F 8544.0)) (= ?K4 (= ?F 8512.0)) (= ?A3 (= ?F 8496.0)) (= ?J4 (ite ?R4 1.0 ?E)) (= ?R4 (= ?E 0.0)) (= ?V2 (not (<= 8672.0 ?F))) (= ?S2 (= ?F 8640.0)) (= ?N2 (not (<= 8608.0 ?F))) (= ?K2 (= ?F 8576.0)) (= ?F2 (not (<= 8560.0 ?F))) (= ?L4 (= ?F 8528.0)) (= ?A2 (not (<= 8512.0 ?F))) (= ?X1 (= ?F 8466.0)) (= ?S1 (not (<= 8656.0 ?F))) (= ?N1 (not (<= 8592.0 ?F))) (= ?I1 (not (<= 8544.0 ?F))) (= ?D1 (not (<= 8496.0 ?F))) (= ?Y (not (<= 8640.0 ?F))) (= ?T (not (<= 8528.0 ?F))) (= ?O (not (<= 8576.0 ?F))) (= ?L (and ?P4 ?Q4)) (= ?Q4 (not (<= ?E 2.0))) (= ?P4 (not (<= 8513.0 ?F))) $x430322 (or $x167798 (and ?D4 (not ?F4)) (and ?F4 (not ?D4))) $x234022 (or $x381797 (and ?Y3 (not ?A4)) (and ?A4 (not ?Y3))) (or $x381797 (and ?S3 ?Y3 (not ?Z3)) (and ?V3 ?A4 (not ?B4))) (or (not ?V3) ?W3) (or (not ?V3) (and ?K3 ?W3 (not ?U3))) (or (not ?S3) ?T3) (or (not ?S3) (and ?K3 ?T3 ?U3)) (or (not ?P3) ?Q3) (or (not ?P3) (and ?B3 ?Q3 (not ?R3))) $x295403 (or $x698096 (and ?Y2 ?O3 ?A)) (or (not ?K3) ?L3) (or (not ?K3) (and ?W2 ?L3 ?M3)) (or (not ?H3) ?I3) (or (not ?H3) (and ?T2 ?I3 ?J3)) (or (not ?E3) ?F3) (or (not ?E3) (and ?I2 ?F3 (not ?G3))) (or (not ?B3) ?C3) (or (not ?B3) (and ?D2 ?C3 ?D3)) (or (not ?Y2) ?Z2) (or (not ?Y2) (and ?Y1 ?Z2 ?A3)) (or (not ?W2) ?X2) (or (not ?W2) (and ?T1 ?X2 (not ?V2))) (or (not ?T2) ?U2) (or (not ?T2) (and ?T1 ?U2 ?V2)) (or (not ?Q2) ?R2) (or (not ?Q2) (and ?Q1 ?R2 ?S2)) (or (not ?O2) ?P2) (or (not ?O2) (and ?O1 ?P2 (not ?N2))) (or (not ?L2) ?M2) (or (not ?L2) (and ?O1 ?M2 ?N2)) (or (not ?I2) ?J2) (or (not ?I2) (and ?L1 ?J2 ?K2)) (or (not ?G2) ?H2) (or (not ?G2) (and ?J1 ?H2 (not ?F2))) (or (not ?D2) ?E2) (or (not ?D2) (and ?J1 ?E2 ?F2)) (or (not ?B2) ?C2) (or (not ?B2) (and ?E1 ?C2 (not ?A2))) (or (not ?Y1) ?Z1) (or (not ?Y1) (and ?E1 ?Z1 ?A2)) $x325046 (or $x36262 (and ?B1 ?W1 ?X1)) (or (not ?T1) ?U1) (or (not ?T1) (and ?Z ?U1 (not ?S1))) $x366610 (or $x799288 (and ?Z ?R1 ?S1)) (or (not ?O1) ?P1) (or (not ?O1) (and ?W ?P1 (not ?N1))) (or (not ?L1) ?M1) (or (not ?L1) (and ?W ?M1 ?N1)) (or (not ?J1) ?K1) (or (not ?J1) (and ?U ?K1 (not ?I1))) (or (not ?G1) ?H1) (or (not ?G1) (and ?U ?H1 ?I1)) (or (not ?E1) ?F1) (or (not ?E1) (and ?R ?F1 (not ?D1))) (or (not ?B1) ?C1) (or (not ?B1) (and ?R ?C1 ?D1)) (or (not ?Z) ?A1) (or (not ?Z) (and ?P ?A1 (not ?Y))) (or (not ?W) ?X) (or (not ?W) (and ?P ?X ?Y)) (or (not ?U) ?V) (or (not ?U) (and ?M ?V (not ?T))) (or (not ?R) ?S) (or (not ?R) (and ?M ?S ?T)) (or (not ?P) ?Q) (or (not ?P) (and ?I ?Q (not ?O))) (or (not ?M) ?N) (or (not ?M) (and ?I ?N ?O)) (or (not ?I) ?K) (or (not ?I) (and ?J ?K (not ?L))) (= ?B4 (= ?E 5.0)))))
(=> $x355835 (|cp-rel-bb| ?A ?B ?C ?D ?G ?H))))))))))))))))))))))
)
(assert (forall ((?A Bool) (?B Bool) (?C Bool) (?D Bool) (?E Real) (?F Real) (?G Bool) (?H Bool) (?I Bool) (?J Bool) (?K Bool) (?L Bool) (?M Bool) (?N Bool) (?O Bool) (?P Bool) (?Q Bool) (?R Bool) (?S Bool) (?T Bool) (?U Bool) (?V Bool) (?W Bool) (?X Bool) (?Y Bool) (?Z Bool) (?A1 Bool) (?B1 Bool) (?C1 Bool) (?D1 Bool) (?E1 Bool) (?F1 Bool) (?G1 Bool) (?H1 Bool) (?I1 Bool) (?J1 Bool) (?K1 Bool) (?L1 Bool) (?M1 Bool) (?N1 Bool) (?O1 Bool) (?P1 Bool) (?Q1 Bool) (?R1 Bool) (?S1 Bool) (?T1 Bool) (?U1 Bool) (?V1 Bool) (?W1 Bool) (?X1 Bool) (?Y1 Bool) (?Z1 Bool) (?A2 Bool) (?B2 Bool) (?C2 Bool) (?D2 Bool) (?E2 Bool) (?F2 Bool) (?G2 Bool) (?H2 Bool) (?I2 Bool) (?J2 Bool) (?K2 Bool) (?L2 Bool) (?M2 Bool) (?N2 Bool) (?O2 Bool) (?P2 Bool) (?Q2 Bool) (?R2 Bool) (?S2 Bool) (?T2 Bool) (?U2 Bool) (?V2 Bool) (?W2 Bool) (?X2 Bool) (?Y2 Bool) (?Z2 Bool) (?A3 Bool) (?B3 Bool) (?C3 Bool) (?D3 Bool) (?E3 Bool) (?F3 Bool) (?G3 Bool) (?H3 Bool) (?I3 Bool) (?J3 Bool) (?K3 Real) (?L3 Bool) (?M3 Real) (?N3 Bool) (?O3 Bool) (?P3 Bool) (?Q3 Bool) (?R3 Bool) (?S3 Bool) (?T3 Bool) (?U3 Bool) )(let (($x799288 (not ?N)))
(let (($x366610 (or $x799288 ?O)))
(let (($x36262 (not ?S)))
(let (($x325046 (or $x36262 ?T)))
(let (($x698096 (not ?K2)))
(let (($x295403 (or $x698096 ?L2)))
(let (($x197338 (not ?B3)))
(let (($x209890 (or $x197338 ?C3)))
(let (($x865340 (not ?D3)))
(let (($x105128 (or (not ?I3) (and ?D3 ?J3 (<= ?K3 ?E) (>= ?K3 ?E)) (and ?Y2 ?L3 ?F3 (<= ?K3 5.0) (>= ?K3 5.0)))))
(let (($x789562 (or (and ?I3 ?A) (and ?K2 (not ?A)) (and ?Z (not ?T1)) (and ?U1 (not ?S2)) (and ?X1 (not ?N3)) (and ?E1 (not ?O3)) (and ?Z1 (not ?T2)) (and ?C2 (not ?P3)) (and ?J1 (not ?E2)) (and ?F2 (not ?Q3)) (and ?I2 (not ?R3)) (and ?O1 (not ?M2)) (and ?N2 (not ?U2)) (and ?Q2 (not ?X2)))))
(let (($x812995 (and (|cp-rel-bb| ?A ?B ?C ?D ?E ?F) (= ?F3 (= ?E 4.0)) (= ?A3 (not (<= 5.0 ?E))) (= ?X2 (= ?F 8672.0)) (= ?U2 (= ?F 8656.0)) (= ?M3 (ite ?U3 4.0 ?E)) (= ?U3 (= ?E 3.0)) (= ?R3 (= ?F 8608.0)) (= ?Q3 (= ?F 8592.0)) (= ?P3 (= ?F 8560.0)) (= ?T2 (= ?F 8544.0)) (= ?N3 (= ?F 8512.0)) (= ?S2 (= ?F 8496.0)) (= ?P2 (not (<= 8672.0 ?F))) (= ?M2 (= ?F 8640.0)) (= ?H2 (not (<= 8608.0 ?F))) (= ?E2 (= ?F 8576.0)) (= ?B2 (not (<= 8560.0 ?F))) (= ?O3 (= ?F 8528.0)) (= ?W1 (not (<= 8512.0 ?F))) (= ?T1 (= ?F 8466.0)) (= ?Q1 (not (<= 8656.0 ?F))) (= ?L1 (not (<= 8592.0 ?F))) (= ?G1 (not (<= 8544.0 ?F))) (= ?B1 (not (<= 8496.0 ?F))) (= ?W (not (<= 8640.0 ?F))) (= ?R (not (<= 8528.0 ?F))) (= ?M (not (<= 8576.0 ?F))) (= ?J (and ?S3 ?T3)) (= ?T3 (not (<= ?E 2.0))) (= ?S3 (not (<= 8513.0 ?F))) $x789562 (or (not ?I3) (and ?J3 (not ?L3)) (and ?L3 (not ?J3))) $x105128 (or $x865340 (and ?E3 (not ?G3)) (and ?G3 (not ?E3))) (or $x865340 (and ?Y2 ?E3 (not ?F3)) (and ?B3 ?G3 (not ?H3))) $x209890 (or $x197338 (and ?V2 ?C3 (not ?A3))) (or (not ?Y2) ?Z2) (or (not ?Y2) (and ?V2 ?Z2 ?A3)) (or (not ?V2) ?W2) (or (not ?V2) (and ?Q2 ?W2 ?X2)) (or (not ?Q2) ?R2) (or (not ?Q2) (and ?R1 ?R2 (not ?P2))) (or (not ?N2) ?O2) (or (not ?N2) (and ?R1 ?O2 ?P2)) $x295403 (or $x698096 (and ?O1 ?L2 ?M2)) (or (not ?I2) ?J2) (or (not ?I2) (and ?M1 ?J2 (not ?H2))) (or (not ?F2) ?G2) (or (not ?F2) (and ?M1 ?G2 ?H2)) (or (not ?C2) ?D2) (or (not ?C2) (and ?H1 ?D2 (not ?B2))) (or (not ?Z1) ?A2) (or (not ?Z1) (and ?H1 ?A2 ?B2)) (or (not ?X1) ?Y1) (or (not ?X1) (and ?C1 ?Y1 (not ?W1))) (or (not ?U1) ?V1) (or (not ?U1) (and ?C1 ?V1 ?W1)) (or (not ?R1) ?S1) (or (not ?R1) (and ?X ?S1 (not ?Q1))) (or (not ?O1) ?P1) (or (not ?O1) (and ?X ?P1 ?Q1)) (or (not ?M1) ?N1) (or (not ?M1) (and ?U ?N1 (not ?L1))) (or (not ?J1) ?K1) (or (not ?J1) (and ?U ?K1 ?L1)) (or (not ?H1) ?I1) (or (not ?H1) (and ?S ?I1 (not ?G1))) (or (not ?E1) ?F1) (or (not ?E1) (and ?S ?F1 ?G1)) (or (not ?C1) ?D1) (or (not ?C1) (and ?P ?D1 (not ?B1))) (or (not ?Z) ?A1) (or (not ?Z) (and ?P ?A1 ?B1)) (or (not ?X) ?Y) (or (not ?X) (and ?N ?Y (not ?W))) (or (not ?U) ?V) (or (not ?U) (and ?N ?V ?W)) $x325046 (or $x36262 (and ?K ?T (not ?R))) (or (not ?P) ?Q) (or (not ?P) (and ?K ?Q ?R)) $x366610 (or $x799288 (and ?G ?O (not ?M))) (or (not ?K) ?L) (or (not ?K) (and ?G ?L ?M)) (or (not ?G) ?I) (or (not ?G) (and ?H ?I (not ?J))) (= ?H3 (= ?E 5.0)))))
(=> $x812995 (|cp-rel-end| ?A ?B ?C ?D ?E ?F)))))))))))))))
)
(assert (forall ((?A Bool) (?B Bool) (?C Bool) (?D Bool) (?E Real) (?F Real) (?G Bool) )(let (($x467572 (|cp-rel-end| ?A ?B ?C ?D ?E ?F)))
(=> (and $x467572 (= ?G true)) $x467572)))
)
(assert (forall ((?A Bool) (?B Bool) (?C Bool) (?D Bool) (?E Real) (?F Real) (?G Bool) (?H Bool) (?I Bool) (?J Bool) (?K Bool) (?L Bool) (?M Bool) (?N Bool) (?O Bool) (?P Bool) (?Q Bool) (?R Bool) (?S Bool) (?T Bool) (?U Bool) (?V Bool) (?W Bool) (?X Bool) (?Y Bool) (?Z Bool) (?A1 Bool) (?B1 Bool) (?C1 Bool) (?D1 Bool) (?E1 Bool) )(let (($x197338 (not ?L)))
(let (($x209890 (or $x197338 ?M)))
(let (($x382579 (and (|cp-rel-bb| ?A ?B ?C ?D ?E ?F) (= ?Z (not (<= 5.0 ?E))) (= ?Y (= ?F 8672.0)) (= ?T (not (<= 8672.0 ?F))) (= ?Q (not (<= 8656.0 ?F))) (= ?N (not (<= 8640.0 ?F))) (= ?K (not (<= 8576.0 ?F))) (= ?J (and ?D1 ?E1)) (= ?E1 (not (<= ?E 2.0))) (= ?D1 (not (<= 8513.0 ?F))) (or (and ?A1 ?C1) (and ?H ?J)) (or (not ?A1) ?B1) (or (not ?A1) (and ?W ?B1 (not ?Z))) (or (not ?W) ?X) (or (not ?W) (and ?U ?X ?Y)) (or (not ?U) ?V) (or (not ?U) (and ?R ?V (not ?T))) (or (not ?R) ?S) (or (not ?R) (and ?O ?S (not ?Q))) (or (not ?O) ?P) (or (not ?O) (and ?L ?P (not ?N))) $x209890 (or $x197338 (and ?G ?M (not ?K))) (or (not ?G) ?I) (or (not ?G) (and ?H ?I (not ?J))) (= ?C1 (= ?E 5.0)))))
(=> $x382579 |cp-rel-ERROR|)))))
)
(assert (not cp-rel-ERROR))
(check-sat)
